NAME: berlin52-24-0
TYPE: TSP
COMMENT: min_cost = 5183.91
DIMENSION: 24
EDGE_WEIGHT_TYPE: EUC_2D
NODE_COORD_SECTION
1 510 875
2 480 415
3 845 655
4 945 685
5 685 595
6 605 625
7 835 625
8 720 635
9 700 500
10 580 1175
11 975 580
12 300 465
13 345 750
14 420 555
15 1605 620
16 525 1000
17 1340 725
18 595 360
19 1740 245
20 660 180
21 1170 65
22 415 635
23 1530 5
24 1320 315
EOF
